p cnf 8 27
8 7 0
8 -8 -5 5 0
-3 3 -4 5 0
-7 0
3 -2 0
3 -2 0
6 0
-7 -4 0
5 6 -2 0
8 0
6 0
8 -6 -5 -2 0
4 6 0
-7 5 -2 0
1 -6 0
8 4 -1 0
1 -4 -2 6 0
-6 -5 4 6 0
8 2 -4 0
8 3 6 -5 0
-6 -5 4 0
2 0
-5 4 -3 7 0
-6 0
-8 5 0
-7 0
-7 6 0
